s td 16 65 80
b 1 1 2 3 5 6 7 8 9 10 11 12 13 14 15 16 17 19 20 21 24 25 26 27 28 29 30 31 32 33 34 35 37 38 39 40 42 44 45 46 48 50 51 53 54 55 56 57 58 59 60 61 63 65 66 67 69 70 71 72 73 74 76 77 78 79
b 2 2 3 5 6 7 8 9 10 11 12 13 14 15 16 17 19 20 21 24 25 26 27 28 29 30 31 32 33 34 35 37 38 39 40 42 44 45 46 47 48 50 51 53 54 55 56 57 58 59 60 61 63 65 66 67 69 70 71 72 73 74 76 77 78 79
b 3 2 3 5 6 7 8 9 10 11 12 13 14 15 16 17 19 20 21 24 25 26 27 28 29 30 31 32 33 34 35 37 38 39 40 42 44 45 46 47 48 50 51 53 54 55 56 57 58 59 60 61 65 66 67 69 70 71 72 74 75 76 77 78 79
b 4 2 3 5 6 7 8 9 10 11 12 13 14 15 16 17 19 20 21 24 25 26 27 28 29 30 31 32 34 35 37 38 39 40 41 42 44 45 46 47 48 50 51 53 54 55 56 57 58 59 60 61 65 66 67 69 70 71 72 74 75 77 78 79
b 5 2 3 4 6 7 8 9 10 11 12 13 14 15 16 17 19 20 21 24 26 27 28 29 30 31 32 34 35 37 38 39 40 41 42 44 45 46 47 48 50 51 53 54 55 57 60 61 65 66 67 69 70 71 72 74 77 78 79
b 6 2 3 4 6 7 8 9 10 11 13 14 15 16 17 19 20 21 24 26 27 28 29 30 34 35 37 38 39 40 41 43 44 45 46 47 48 53 54 55 57 60 61 65 66 67 70 71 72 74 77 78 79
b 7 6 7 8 11 14 16 19 21 24 26 27 28 29 30 37 38 39 41 43 45 47 53 54 55 60 61 65 66 67 68 71 77 78
b 8 2 5 6 7 9 12 16 17 24 25 26 28 29 30 33 34 37 42 44 45 47 50 56 57 60 62 65 67 69 71 73 77 79
b 9 1 2 3 5 6 7 8 9 10 11 12 13 14 15 16 17 19 20 21 24 25 26 27 28 29 30 31 32 33 34 35 37 38 39 40 42 44 45 46 48 50 51 52 53 54 55 56 57 58 59 60 61 63 65 67 69 70 71 72 73 74 76 77 78 79
b 10 1 2 3 5 7 8 9 10 11 12 13 14 15 16 17 19 20 21 22 24 25 26 27 28 29 30 31 32 33 34 35 37 38 39 40 42 44 45 46 48 50 51 52 53 54 55 56 57 58 59 60 61 63 65 67 69 70 71 72 73 74 76 77 78 79
b 11 1 2 3 5 7 8 9 10 11 12 13 14 15 16 17 18 19 20 21 22 24 25 26 27 29 31 32 33 34 35 37 38 39 40 42 44 45 46 48 50 51 52 53 54 55 56 57 58 59 60 61 63 65 67 69 70 71 72 73 74 76 77 78 79
b 12 1 2 3 5 7 8 9 10 11 13 14 15 16 17 18 19 20 21 22 23 24 25 26 27 29 31 32 33 34 35 37 38 39 40 42 44 45 46 48 50 51 52 53 54 55 56 57 58 59 60 61 63 65 67 69 70 71 72 73 74 76 78 79
b 13 1 2 3 5 7 8 11 13 14 15 16 17 18 19 20 21 22 23 24 25 26 27 29 31 32 33 34 35 36 37 38 39 40 42 44 45 46 48 50 51 52 53 54 55 56 57 58 59 60 61 63 65 67 69 70 71 72 73 74 76 78 79
b 14 1 2 3 5 7 8 11 13 14 15 16 17 18 19 20 21 22 23 24 25 26 27 29 31 33 34 35 36 37 39 40 42 44 45 46 48 50 51 52 53 54 55 57 58 59 60 61 63 64 65 67 69 70 71 72 73 74 76 78 79
b 15 1 2 3 5 11 13 14 15 16 17 18 19 20 21 22 23 24 25 26 27 31 33 34 35 36 37 39 40 42 44 45 46 48 49 50 51 52 53 54 55 57 59 60 61 63 64 65 67 70 71 72 73 74 76 78 79
b 16 1 2 3 5 11 15 16 17 18 19 20 21 22 25 26 27 31 33 34 36 39 40 44 48 49 50 54 55 57 65 70 71 72 73 74 79 80
1 2
1 9
2 3
2 8
3 4
4 5
5 6
6 7
9 10
10 11
11 12
12 13
13 14
14 15
15 16
